
(set-logic HORN)
(declare-datatypes ((Bool_414 0)) (((false_414) (true_414))))
(declare-fun diseqBool_200 (Bool_414 Bool_414) Bool)
(declare-fun isfalse_200 (Bool_414) Bool)
(declare-fun istrue_200 (Bool_414) Bool)
(assert (isfalse_200 false_414))
(assert (istrue_200 true_414))
(assert (diseqBool_200 false_414 true_414))
(assert (diseqBool_200 true_414 false_414))
(declare-fun and_418 (Bool_414 Bool_414 Bool_414) Bool)
(declare-fun or_428 (Bool_414 Bool_414 Bool_414) Bool)
(declare-fun hence_414 (Bool_414 Bool_414 Bool_414) Bool)
(declare-fun not_419 (Bool_414 Bool_414) Bool)
(assert (and_418 false_414 false_414 false_414))
(assert (and_418 false_414 true_414 false_414))
(assert (and_418 false_414 false_414 true_414))
(assert (and_418 true_414 true_414 true_414))
(assert (or_428 false_414 false_414 false_414))
(assert (or_428 true_414 true_414 false_414))
(assert (or_428 true_414 false_414 true_414))
(assert (or_428 true_414 true_414 true_414))
(assert (hence_414 true_414 false_414 false_414))
(assert (hence_414 false_414 true_414 false_414))
(assert (hence_414 true_414 false_414 true_414))
(assert (hence_414 true_414 true_414 true_414))
(assert (not_419 true_414 false_414))
(assert (not_419 false_414 true_414))
(declare-datatypes ((T_23 0)) (((A_101) (B_102) (C_56))))
(declare-fun diseqT_22 (T_23 T_23) Bool)
(declare-fun isA_29 (T_23) Bool)
(declare-fun isB_29 (T_23) Bool)
(declare-fun isC_30 (T_23) Bool)
(assert (isA_29 A_101))
(assert (isB_29 B_102))
(assert (isC_30 C_56))
(assert (diseqT_22 A_101 B_102))
(assert (diseqT_22 A_101 C_56))
(assert (diseqT_22 B_102 A_101))
(assert (diseqT_22 C_56 A_101))
(assert (diseqT_22 B_102 C_56))
(assert (diseqT_22 C_56 B_102))
(declare-datatypes ((list_349 0)) (((nil_396) (cons_344 (head_688 T_23) (tail_693 list_349)))))
(declare-fun diseqlist_344 (list_349 list_349) Bool)
(declare-fun head_689 (T_23 list_349) Bool)
(declare-fun tail_694 (list_349 list_349) Bool)
(declare-fun isnil_396 (list_349) Bool)
(declare-fun iscons_344 (list_349) Bool)
(assert (forall ((x_97115 T_23) (x_97116 list_349))
	(head_689 x_97115 (cons_344 x_97115 x_97116))))
(assert (forall ((x_97115 T_23) (x_97116 list_349))
	(tail_694 x_97116 (cons_344 x_97115 x_97116))))
(assert (isnil_396 nil_396))
(assert (forall ((x_97118 T_23) (x_97119 list_349))
	(iscons_344 (cons_344 x_97118 x_97119))))
(assert (forall ((x_97120 T_23) (x_97121 list_349))
	(diseqlist_344 nil_396 (cons_344 x_97120 x_97121))))
(assert (forall ((x_97122 T_23) (x_97123 list_349))
	(diseqlist_344 (cons_344 x_97122 x_97123) nil_396)))
(assert (forall ((x_97124 T_23) (x_97125 list_349) (x_97126 T_23) (x_97127 list_349))
	(=> (diseqT_22 x_97124 x_97126) (diseqlist_344 (cons_344 x_97124 x_97125) (cons_344 x_97126 x_97127)))))
(assert (forall ((x_97124 T_23) (x_97125 list_349) (x_97126 T_23) (x_97127 list_349))
	(=> (diseqlist_344 x_97125 x_97127) (diseqlist_344 (cons_344 x_97124 x_97125) (cons_344 x_97126 x_97127)))))
(declare-datatypes ((R_570 0)) (((Nil_397) (Eps_72) (Atom_36 (projAtom_72 T_23)) (x_97065 (proj_232 R_570) (proj_233 R_570)) (x_97066 (proj_234 R_570) (proj_235 R_570)) (Star_36 (projStar_72 R_570)))))
(declare-fun diseqR_36 (R_570 R_570) Bool)
(declare-fun projAtom_73 (T_23 R_570) Bool)
(declare-fun proj_236 (R_570 R_570) Bool)
(declare-fun proj_237 (R_570 R_570) Bool)
(declare-fun proj_238 (R_570 R_570) Bool)
(declare-fun proj_239 (R_570 R_570) Bool)
(declare-fun projStar_73 (R_570 R_570) Bool)
(declare-fun isNil_397 (R_570) Bool)
(declare-fun isEps_36 (R_570) Bool)
(declare-fun isAtom_36 (R_570) Bool)
(declare-fun isx_73 (R_570) Bool)
(declare-fun isx_74 (R_570) Bool)
(declare-fun isStar_36 (R_570) Bool)
(assert (forall ((x_97130 T_23))
	(projAtom_73 x_97130 (Atom_36 x_97130))))
(assert (forall ((x_97132 R_570) (x_97133 R_570))
	(proj_236 x_97132 (x_97065 x_97132 x_97133))))
(assert (forall ((x_97132 R_570) (x_97133 R_570))
	(proj_237 x_97133 (x_97065 x_97132 x_97133))))
(assert (forall ((x_97135 R_570) (x_97136 R_570))
	(proj_238 x_97135 (x_97066 x_97135 x_97136))))
(assert (forall ((x_97135 R_570) (x_97136 R_570))
	(proj_239 x_97136 (x_97066 x_97135 x_97136))))
(assert (forall ((x_97138 R_570))
	(projStar_73 x_97138 (Star_36 x_97138))))
(assert (isNil_397 Nil_397))
(assert (isEps_36 Eps_72))
(assert (forall ((x_97140 T_23))
	(isAtom_36 (Atom_36 x_97140))))
(assert (forall ((x_97141 R_570) (x_97142 R_570))
	(isx_73 (x_97065 x_97141 x_97142))))
(assert (forall ((x_97143 R_570) (x_97144 R_570))
	(isx_74 (x_97066 x_97143 x_97144))))
(assert (forall ((x_97145 R_570))
	(isStar_36 (Star_36 x_97145))))
(assert (diseqR_36 Nil_397 Eps_72))
(assert (forall ((x_97146 T_23))
	(diseqR_36 Nil_397 (Atom_36 x_97146))))
(assert (forall ((x_97147 R_570) (x_97148 R_570))
	(diseqR_36 Nil_397 (x_97065 x_97147 x_97148))))
(assert (forall ((x_97149 R_570) (x_97150 R_570))
	(diseqR_36 Nil_397 (x_97066 x_97149 x_97150))))
(assert (forall ((x_97151 R_570))
	(diseqR_36 Nil_397 (Star_36 x_97151))))
(assert (diseqR_36 Eps_72 Nil_397))
(assert (forall ((x_97152 T_23))
	(diseqR_36 (Atom_36 x_97152) Nil_397)))
(assert (forall ((x_97153 R_570) (x_97154 R_570))
	(diseqR_36 (x_97065 x_97153 x_97154) Nil_397)))
(assert (forall ((x_97155 R_570) (x_97156 R_570))
	(diseqR_36 (x_97066 x_97155 x_97156) Nil_397)))
(assert (forall ((x_97157 R_570))
	(diseqR_36 (Star_36 x_97157) Nil_397)))
(assert (forall ((x_97158 T_23))
	(diseqR_36 Eps_72 (Atom_36 x_97158))))
(assert (forall ((x_97159 R_570) (x_97160 R_570))
	(diseqR_36 Eps_72 (x_97065 x_97159 x_97160))))
(assert (forall ((x_97161 R_570) (x_97162 R_570))
	(diseqR_36 Eps_72 (x_97066 x_97161 x_97162))))
(assert (forall ((x_97163 R_570))
	(diseqR_36 Eps_72 (Star_36 x_97163))))
(assert (forall ((x_97164 T_23))
	(diseqR_36 (Atom_36 x_97164) Eps_72)))
(assert (forall ((x_97165 R_570) (x_97166 R_570))
	(diseqR_36 (x_97065 x_97165 x_97166) Eps_72)))
(assert (forall ((x_97167 R_570) (x_97168 R_570))
	(diseqR_36 (x_97066 x_97167 x_97168) Eps_72)))
(assert (forall ((x_97169 R_570))
	(diseqR_36 (Star_36 x_97169) Eps_72)))
(assert (forall ((x_97170 T_23) (x_97171 R_570) (x_97172 R_570))
	(diseqR_36 (Atom_36 x_97170) (x_97065 x_97171 x_97172))))
(assert (forall ((x_97173 T_23) (x_97174 R_570) (x_97175 R_570))
	(diseqR_36 (Atom_36 x_97173) (x_97066 x_97174 x_97175))))
(assert (forall ((x_97176 T_23) (x_97177 R_570))
	(diseqR_36 (Atom_36 x_97176) (Star_36 x_97177))))
(assert (forall ((x_97178 R_570) (x_97179 R_570) (x_97180 T_23))
	(diseqR_36 (x_97065 x_97178 x_97179) (Atom_36 x_97180))))
(assert (forall ((x_97181 R_570) (x_97182 R_570) (x_97183 T_23))
	(diseqR_36 (x_97066 x_97181 x_97182) (Atom_36 x_97183))))
(assert (forall ((x_97184 R_570) (x_97185 T_23))
	(diseqR_36 (Star_36 x_97184) (Atom_36 x_97185))))
(assert (forall ((x_97186 R_570) (x_97187 R_570) (x_97188 R_570) (x_97189 R_570))
	(diseqR_36 (x_97065 x_97186 x_97187) (x_97066 x_97188 x_97189))))
(assert (forall ((x_97190 R_570) (x_97191 R_570) (x_97192 R_570))
	(diseqR_36 (x_97065 x_97190 x_97191) (Star_36 x_97192))))
(assert (forall ((x_97193 R_570) (x_97194 R_570) (x_97195 R_570) (x_97196 R_570))
	(diseqR_36 (x_97066 x_97193 x_97194) (x_97065 x_97195 x_97196))))
(assert (forall ((x_97197 R_570) (x_97198 R_570) (x_97199 R_570))
	(diseqR_36 (Star_36 x_97197) (x_97065 x_97198 x_97199))))
(assert (forall ((x_97200 R_570) (x_97201 R_570) (x_97202 R_570))
	(diseqR_36 (x_97066 x_97200 x_97201) (Star_36 x_97202))))
(assert (forall ((x_97203 R_570) (x_97204 R_570) (x_97205 R_570))
	(diseqR_36 (Star_36 x_97203) (x_97066 x_97204 x_97205))))
(assert (forall ((x_97206 T_23) (x_97207 T_23))
	(=> (diseqT_22 x_97206 x_97207) (diseqR_36 (Atom_36 x_97206) (Atom_36 x_97207)))))
(assert (forall ((x_97208 R_570) (x_97209 R_570) (x_97210 R_570) (x_97211 R_570))
	(=> (diseqR_36 x_97208 x_97210) (diseqR_36 (x_97065 x_97208 x_97209) (x_97065 x_97210 x_97211)))))
(assert (forall ((x_97208 R_570) (x_97209 R_570) (x_97210 R_570) (x_97211 R_570))
	(=> (diseqR_36 x_97209 x_97211) (diseqR_36 (x_97065 x_97208 x_97209) (x_97065 x_97210 x_97211)))))
(assert (forall ((x_97212 R_570) (x_97213 R_570) (x_97214 R_570) (x_97215 R_570))
	(=> (diseqR_36 x_97212 x_97214) (diseqR_36 (x_97066 x_97212 x_97213) (x_97066 x_97214 x_97215)))))
(assert (forall ((x_97212 R_570) (x_97213 R_570) (x_97214 R_570) (x_97215 R_570))
	(=> (diseqR_36 x_97213 x_97215) (diseqR_36 (x_97066 x_97212 x_97213) (x_97066 x_97214 x_97215)))))
(assert (forall ((x_97216 R_570) (x_97217 R_570))
	(=> (diseqR_36 x_97216 x_97217) (diseqR_36 (Star_36 x_97216) (Star_36 x_97217)))))
(declare-fun eps_73 (Bool_414 R_570) Bool)
(assert (forall ((y_2865 R_570))
	(eps_73 true_414 (Star_36 y_2865))))
(assert (forall ((x_97074 Bool_414) (x_97075 Bool_414) (x_97076 Bool_414) (r_571 R_570) (q_271 R_570))
	(=> (and (eps_73 x_97075 r_571) (eps_73 x_97076 q_271) (and_418 x_97074 x_97075 x_97076)) (eps_73 x_97074 (x_97066 r_571 q_271)))))
(assert (forall ((x_97077 Bool_414) (x_97078 Bool_414) (x_97079 Bool_414) (p_520 R_570) (q_272 R_570))
	(=> (and (eps_73 x_97078 p_520) (eps_73 x_97079 q_272) (or_428 x_97077 x_97078 x_97079)) (eps_73 x_97077 (x_97065 p_520 q_272)))))
(assert (eps_73 true_414 Eps_72))
(assert (forall ((x_97068 R_570) (x_97072 T_23))
	(eps_73 false_414 (Atom_36 x_97072))))
(assert (forall ((x_97068 R_570))
	(eps_73 false_414 Nil_397)))
(declare-fun step_36 (R_570 R_570 T_23) Bool)
(assert (forall ((x_97084 R_570) (p_521 R_570) (y_2866 T_23))
	(=> (step_36 x_97084 p_521 y_2866) (step_36 (x_97066 x_97084 (Star_36 p_521)) (Star_36 p_521) y_2866))))
(assert (forall ((x_97087 R_570) (x_97088 R_570) (r_572 R_570) (q_273 R_570) (y_2866 T_23))
	(=> (and (step_36 x_97087 r_572 y_2866) (step_36 x_97088 q_273 y_2866) (eps_73 true_414 r_572)) (step_36 (x_97065 (x_97066 x_97087 q_273) x_97088) (x_97066 r_572 q_273) y_2866))))
(assert (forall ((x_97091 R_570) (r_572 R_570) (q_273 R_570) (y_2866 T_23))
	(=> (and (step_36 x_97091 r_572 y_2866) (eps_73 false_414 r_572)) (step_36 (x_97065 (x_97066 x_97091 q_273) Nil_397) (x_97066 r_572 q_273) y_2866))))
(assert (forall ((x_97093 R_570) (x_97094 R_570) (p_522 R_570) (q_274 R_570) (y_2866 T_23))
	(=> (and (step_36 x_97093 p_522 y_2866) (step_36 x_97094 q_274 y_2866)) (step_36 (x_97065 x_97093 x_97094) (x_97065 p_522 q_274) y_2866))))
(assert (forall ((b_103 T_23))
	(step_36 Eps_72 (Atom_36 b_103) b_103)))
(assert (forall ((b_103 T_23) (y_2866 T_23))
	(=> (diseqT_22 b_103 y_2866) (step_36 Nil_397 (Atom_36 b_103) y_2866))))
(assert (forall ((x_97070 R_570) (y_2866 T_23))
	(step_36 Nil_397 Eps_72 y_2866)))
(assert (forall ((x_97070 R_570) (y_2866 T_23))
	(step_36 Nil_397 Nil_397 y_2866)))
(declare-fun rec_22 (Bool_414 R_570 list_349) Bool)
(assert (forall ((x_97099 Bool_414) (x_97100 R_570) (z_2512 T_23) (xs_834 list_349) (x_97071 R_570))
	(=> (and (step_36 x_97100 x_97071 z_2512) (rec_22 x_97099 x_97100 xs_834)) (rec_22 x_97099 x_97071 (cons_344 z_2512 xs_834)))))
(assert (forall ((x_97102 Bool_414) (x_97071 R_570))
	(=> (eps_73 x_97102 x_97071) (rec_22 x_97102 x_97071 nil_396))))
(assert (forall ((x_97104 Bool_414) (x_97105 Bool_414) (p_523 R_570) (q_275 R_570) (s_584 list_349))
	(=> (and true (diseqBool_200 x_97104 x_97105) (rec_22 x_97104 (x_97065 p_523 q_275) s_584) (rec_22 x_97105 (x_97066 p_523 q_275) s_584)) false)))
(check-sat)
